p cnf 10 97
-2 -10 1 2 3 4 5 6 7 8 9 10
-4 -2 -5 -9 1 2 3 4 5 7 8 9
-2 -10 -9 9 10 2 0
-10 -3 -4 -1 -5 -9 1 2 3 4 5 6 9 10 0
 1 6
-7 1 3 7 8 9
-5 5
-2 1 2 3 4 5 6 7 8 9 10

-2 -9 -8 -5 -7 -3 1 2 3 4 5 7 8 9
-2 -1 -4 -3 1 2 3 4 10 0
-1 -10 -8 -9 -7 1 2 5 6 7 8 9 10 0
-1 -10 -6 1 2 3 6 7 9 10 0
-3 3
-8 8 1 3 6
-7 -10 -2 -9 -4 -1 -6 1 2 3 4 5 6 7 8 9 10
 2 3 6 7 8 9
-10 -1 -3 -7 -4 -6 -2 -5 -9 -8 1 2 3 4 5 6 7 8 9 10 0
 8 1 9
-3 -6 -5 -4 -8 1 3 4 5 6 7 8
-7 -1 -4 1 3 4 6 7 8 9
-2 -3 -6 -10 -8 1 2 3 4 5 6 8 9 10
-10 1 10 3 9
-6 -10 1 5 6 7 9 10
 9 10 2 1 0
-10 -9 -4 -7 3 4 7 9 10
-4 -1 1 4 6 8 10 0
-5 -3 2 3 5 7 8 10
-9 -2 -7 2 3 5 6 7 9
-8 -3 -2 -4 -6 -10 2 3 4 6 8 9 10
 8 9 5 0
-7 7
 8 2
-6 -3 -4 -1 -8 -5 -2 -9 1 2 3 4 5 6 7 8 9 0
-10 -6 -8 -3 8 10 3 6 0
-1 1
-8 -3 -1 1 3 4 6 8
-6 1 2 3 4 5 6 7 9 10 0
-3 -8 -5 1 3 4 5 6 7 8 9 10
-9 9 3 0
 1 3 4 7 8 10
 1
-9 -8 -7 -3 -2 -4 2 3 4 7 8 9
